p tw 1100 16501 7 
1 8 
1 221 
2 9 
2 10 
2 222 
3 7 
3 10 
3 471 
4 8 
4 9 
4 472 
5 7 
5 9 
5 781 
6 8 
6 10 
6 782 
11 17 
11 18 
11 41 
12 19 
12 20 
12 42 
13 17 
13 20 
13 431 
14 18 
14 19 
14 432 
15 17 
15 19 
15 501 
16 18 
16 20 
16 502 
21 27 
21 28 
21 51 
22 29 
22 30 
22 52 
23 27 
23 30 
23 141 
24 28 
24 29 
24 142 
25 27 
25 29 
25 621 
26 28 
26 30 
26 622 
31 37 
31 38 
31 301 
32 39 
32 40 
32 302 
33 37 
33 40 
33 321 
34 38 
34 39 
34 322 
35 37 
35 39 
35 891 
36 38 
36 40 
36 892 
41 47 
41 48 
42 49 
42 50 
43 47 
43 50 
43 191 
44 48 
44 49 
44 192 
45 47 
45 49 
45 691 
46 48 
46 50 
46 692 
51 57 
51 58 
52 59 
52 60 
53 57 
53 60 
53 211 
54 58 
54 59 
54 212 
55 57 
55 59 
55 991 
56 58 
56 60 
56 992 
61 67 
61 68 
61 541 
62 69 
62 70 
62 542 
63 67 
63 70 
63 671 
64 68 
64 69 
64 672 
65 67 
65 69 
65 1031 
66 68 
66 70 
66 1032 
71 77 
71 78 
71 421 
72 79 
72 80 
72 422 
73 77 
73 80 
73 631 
74 78 
74 79 
74 632 
75 77 
75 79 
75 711 
76 78 
76 80 
76 712 
81 87 
81 88 
81 571 
82 89 
82 90 
82 572 
83 87 
83 90 
83 721 
84 88 
84 89 
84 722 
85 87 
85 89 
85 1081 
86 88 
86 90 
86 1082 
91 97 
91 98 
91 351 
92 99 
92 100 
92 352 
93 97 
93 100 
93 441 
94 98 
94 99 
94 442 
95 97 
95 99 
95 611 
96 98 
96 100 
96 612 
101 107 
101 108 
101 193 
102 109 
102 110 
102 194 
103 107 
103 110 
103 921 
104 108 
104 109 
104 922 
105 107 
105 109 
105 971 
106 108 
106 110 
106 972 
111 117 
111 118 
111 551 
112 119 
112 120 
112 552 
113 117 
113 120 
113 791 
114 118 
114 119 
114 792 
115 117 
115 119 
115 981 
116 118 
116 120 
116 982 
121 127 
121 128 
121 461 
122 129 
122 130 
122 462 
123 127 
123 130 
123 613 
124 128 
124 129 
124 614 
125 127 
125 129 
125 731 
126 128 
126 130 
126 732 
131 137 
131 138 
131 271 
132 139 
132 140 
132 272 
133 137 
133 140 
133 601 
134 138 
134 139 
134 602 
135 137 
135 139 
135 821 
136 138 
136 140 
136 822 
141 147 
141 148 
142 149 
142 150 
143 147 
143 150 
143 723 
144 148 
144 149 
144 724 
145 147 
145 149 
145 1011 
146 148 
146 150 
146 1012 
151 157 
151 158 
151 503 
152 159 
152 160 
152 504 
153 157 
153 160 
153 681 
154 158 
154 159 
154 682 
155 157 
155 159 
155 1061 
156 158 
156 160 
156 1062 
161 167 
161 168 
161 531 
162 169 
162 170 
162 532 
163 167 
163 170 
163 553 
164 168 
164 169 
164 554 
165 167 
165 169 
165 841 
166 168 
166 170 
166 842 
171 177 
171 178 
171 273 
172 179 
172 180 
172 274 
173 177 
173 180 
173 401 
174 178 
174 179 
174 402 
175 177 
175 179 
175 661 
176 178 
176 180 
176 662 
181 187 
181 188 
181 241 
182 189 
182 190 
182 242 
183 187 
183 190 
183 261 
184 188 
184 189 
184 262 
185 187 
185 189 
185 1001 
186 188 
186 190 
186 1002 
191 197 
191 198 
192 199 
192 200 
193 197 
193 200 
194 198 
194 199 
195 197 
195 199 
195 973 
196 198 
196 200 
196 974 
201 207 
201 208 
201 433 
202 209 
202 210 
202 434 
203 207 
203 210 
203 615 
204 208 
204 209 
204 616 
205 207 
205 209 
205 923 
206 208 
206 210 
206 924 
211 217 
211 218 
212 219 
212 220 
213 217 
213 220 
213 1021 
214 218 
214 219 
214 1022 
215 217 
215 219 
215 1071 
216 218 
216 220 
216 1072 
221 227 
221 228 
222 229 
222 230 
223 227 
223 230 
223 251 
224 228 
224 229 
224 252 
225 227 
225 229 
225 751 
226 228 
226 230 
226 752 
231 237 
231 238 
231 391 
232 239 
232 240 
232 392 
233 237 
233 240 
233 823 
234 238 
234 239 
234 824 
235 237 
235 239 
235 925 
236 238 
236 240 
236 926 
241 247 
241 248 
242 249 
242 250 
243 247 
243 250 
243 341 
244 248 
244 249 
244 342 
245 247 
245 249 
245 435 
246 248 
246 250 
246 436 
251 257 
251 258 
252 259 
252 260 
253 257 
253 260 
253 581 
254 258 
254 259 
254 582 
255 257 
255 259 
255 843 
256 258 
256 260 
256 844 
261 267 
261 268 
262 269 
262 270 
263 267 
263 270 
263 583 
264 268 
264 269 
264 584 
265 267 
265 269 
265 591 
266 268 
266 270 
266 592 
271 277 
271 278 
272 279 
272 280 
273 277 
273 280 
274 278 
274 279 
275 277 
275 279 
275 281 
276 278 
276 280 
276 282 
281 287 
281 288 
282 289 
282 290 
283 287 
283 290 
283 481 
284 288 
284 289 
284 482 
285 287 
285 289 
285 1051 
286 288 
286 290 
286 1052 
291 297 
291 298 
291 343 
292 299 
292 300 
292 344 
293 297 
293 300 
293 693 
294 298 
294 299 
294 694 
295 297 
295 299 
295 881 
296 298 
296 300 
296 882 
301 307 
301 308 
302 309 
302 310 
303 307 
303 310 
303 361 
304 308 
304 309 
304 362 
305 307 
305 309 
305 983 
306 308 
306 310 
306 984 
311 317 
311 318 
311 491 
312 319 
312 320 
312 492 
313 317 
313 320 
313 673 
314 318 
314 319 
314 674 
315 317 
315 319 
315 901 
316 318 
316 320 
316 902 
321 327 
321 328 
322 329 
322 330 
323 327 
323 330 
323 561 
324 328 
324 329 
324 562 
325 327 
325 329 
325 1083 
326 328 
326 330 
326 1084 
331 337 
331 338 
331 463 
332 339 
332 340 
332 464 
333 337 
333 340 
333 603 
334 338 
334 339 
334 604 
335 337 
335 339 
335 825 
336 338 
336 340 
336 826 
341 347 
341 348 
342 349 
342 350 
343 347 
343 350 
344 348 
344 349 
345 347 
345 349 
345 783 
346 348 
346 350 
346 784 
351 357 
351 358 
352 359 
352 360 
353 357 
353 360 
353 371 
354 358 
354 359 
354 372 
355 357 
355 359 
355 811 
356 358 
356 360 
356 812 
361 367 
361 368 
362 369 
362 370 
363 367 
363 370 
363 851 
364 368 
364 369 
364 852 
365 367 
365 369 
365 861 
366 368 
366 370 
366 862 
371 377 
371 378 
372 379 
372 380 
373 377 
373 380 
373 403 
374 378 
374 379 
374 404 
375 377 
375 379 
375 813 
376 378 
376 380 
376 814 
381 387 
381 388 
381 641 
382 389 
382 390 
382 642 
383 387 
383 390 
383 713 
384 388 
384 389 
384 714 
385 387 
385 389 
385 903 
386 388 
386 390 
386 904 
391 397 
391 398 
392 399 
392 400 
393 397 
393 400 
393 493 
394 398 
394 399 
394 494 
395 397 
395 399 
395 911 
396 398 
396 400 
396 912 
401 407 
401 408 
402 409 
402 410 
403 407 
403 410 
404 408 
404 409 
405 407 
405 409 
405 801 
406 408 
406 410 
406 802 
411 417 
411 418 
411 495 
412 419 
412 420 
412 496 
413 417 
413 420 
413 573 
414 418 
414 419 
414 574 
415 417 
415 419 
415 961 
416 418 
416 420 
416 962 
421 427 
421 428 
422 429 
422 430 
423 427 
423 430 
423 951 
424 428 
424 429 
424 952 
425 427 
425 429 
425 1033 
426 428 
426 430 
426 1034 
431 437 
431 438 
432 439 
432 440 
433 437 
433 440 
434 438 
434 439 
435 437 
435 439 
436 438 
436 440 
441 447 
441 448 
442 449 
442 450 
443 447 
443 450 
443 633 
444 448 
444 449 
444 634 
445 447 
445 449 
445 975 
446 448 
446 450 
446 976 
451 457 
451 458 
451 473 
452 459 
452 460 
452 474 
453 457 
453 460 
453 785 
454 458 
454 459 
454 786 
455 457 
455 459 
455 963 
456 458 
456 460 
456 964 
461 467 
461 468 
462 469 
462 470 
463 467 
463 470 
464 468 
464 469 
465 467 
465 469 
465 863 
466 468 
466 470 
466 864 
471 477 
471 478 
472 479 
472 480 
473 477 
473 480 
474 478 
474 479 
475 477 
475 479 
475 593 
476 478 
476 480 
476 594 
481 487 
481 488 
482 489 
482 490 
483 487 
483 490 
483 871 
484 488 
484 489 
484 872 
485 487 
485 489 
485 965 
486 488 
486 490 
486 966 
491 497 
491 498 
492 499 
492 500 
493 497 
493 500 
494 498 
494 499 
495 497 
495 499 
496 498 
496 500 
501 507 
501 508 
502 509 
502 510 
503 507 
503 510 
504 508 
504 509 
505 507 
505 509 
505 683 
506 508 
506 510 
506 684 
511 517 
511 518 
511 831 
512 519 
512 520 
512 832 
513 517 
513 520 
513 893 
514 518 
514 519 
514 894 
515 517 
515 519 
515 1035 
516 518 
516 520 
516 1036 
521 527 
521 528 
521 845 
522 529 
522 530 
522 846 
523 527 
523 530 
523 941 
524 528 
524 529 
524 942 
525 527 
525 529 
525 1091 
526 528 
526 530 
526 1092 
531 537 
531 538 
532 539 
532 540 
533 537 
533 540 
533 741 
534 538 
534 539 
534 742 
535 537 
535 539 
535 1085 
536 538 
536 540 
536 1086 
541 547 
541 548 
542 549 
542 550 
543 547 
543 550 
543 605 
544 548 
544 549 
544 606 
545 547 
545 549 
545 913 
546 548 
546 550 
546 914 
551 557 
551 558 
552 559 
552 560 
553 557 
553 560 
554 558 
554 559 
555 557 
555 559 
555 853 
556 558 
556 560 
556 854 
561 567 
561 568 
562 569 
562 570 
563 567 
563 570 
563 753 
564 568 
564 569 
564 754 
565 567 
565 569 
565 931 
566 568 
566 570 
566 932 
571 577 
571 578 
572 579 
572 580 
573 577 
573 580 
574 578 
574 579 
575 577 
575 579 
575 815 
576 578 
576 580 
576 816 
581 587 
581 588 
582 589 
582 590 
583 587 
583 590 
584 588 
584 589 
585 587 
585 589 
585 833 
586 588 
586 590 
586 834 
591 597 
591 598 
592 599 
592 600 
593 597 
593 600 
594 598 
594 599 
595 597 
595 599 
595 835 
596 598 
596 600 
596 836 
601 607 
601 608 
602 609 
602 610 
603 607 
603 610 
604 608 
604 609 
605 607 
605 609 
606 608 
606 610 
611 617 
611 618 
612 619 
612 620 
613 617 
613 620 
614 618 
614 619 
615 617 
615 619 
616 618 
616 620 
621 627 
621 628 
622 629 
622 630 
623 627 
623 630 
623 743 
624 628 
624 629 
624 744 
625 627 
625 629 
625 985 
626 628 
626 630 
626 986 
631 637 
631 638 
632 639 
632 640 
633 637 
633 640 
634 638 
634 639 
635 637 
635 639 
635 905 
636 638 
636 640 
636 906 
641 647 
641 648 
642 649 
642 650 
643 647 
643 650 
643 1053 
644 648 
644 649 
644 1054 
645 647 
645 649 
645 1093 
646 648 
646 650 
646 1094 
651 657 
651 658 
651 865 
652 659 
652 660 
652 866 
653 657 
653 660 
653 953 
654 658 
654 659 
654 954 
655 657 
655 659 
655 1095 
656 658 
656 660 
656 1096 
661 667 
661 668 
662 669 
662 670 
663 667 
663 670 
663 803 
664 668 
664 669 
664 804 
665 667 
665 669 
665 943 
666 668 
666 670 
666 944 
671 677 
671 678 
672 679 
672 680 
673 677 
673 680 
674 678 
674 679 
675 677 
675 679 
675 1013 
676 678 
676 680 
676 1014 
681 687 
681 688 
682 689 
682 690 
683 687 
683 690 
684 688 
684 689 
685 687 
685 689 
685 873 
686 688 
686 690 
686 874 
691 697 
691 698 
692 699 
692 700 
693 697 
693 700 
694 698 
694 699 
695 697 
695 699 
695 855 
696 698 
696 700 
696 856 
701 707 
701 708 
701 793 
702 709 
702 710 
702 794 
703 707 
703 710 
703 945 
704 708 
704 709 
704 946 
705 707 
705 709 
705 1023 
706 708 
706 710 
706 1024 
711 717 
711 718 
712 719 
712 720 
713 717 
713 720 
714 718 
714 719 
715 717 
715 719 
715 771 
716 718 
716 720 
716 772 
721 727 
721 728 
722 729 
722 730 
723 727 
723 730 
724 728 
724 729 
725 727 
725 729 
725 875 
726 728 
726 730 
726 876 
731 737 
731 738 
732 739 
732 740 
733 737 
733 740 
733 755 
734 738 
734 739 
734 756 
735 737 
735 739 
735 805 
736 738 
736 740 
736 806 
741 747 
741 748 
742 749 
742 750 
743 747 
743 750 
744 748 
744 749 
745 747 
745 749 
745 1063 
746 748 
746 750 
746 1064 
751 757 
751 758 
752 759 
752 760 
753 757 
753 760 
754 758 
754 759 
755 757 
755 759 
756 758 
756 760 
761 767 
761 768 
761 795 
762 769 
762 770 
762 796 
763 767 
763 770 
763 1025 
764 768 
764 769 
764 1026 
765 767 
765 769 
765 1041 
766 768 
766 770 
766 1042 
771 777 
771 778 
772 779 
772 780 
773 777 
773 780 
773 1003 
774 778 
774 779 
774 1004 
775 777 
775 779 
775 1043 
776 778 
776 780 
776 1044 
781 787 
781 788 
782 789 
782 790 
783 787 
783 790 
784 788 
784 789 
785 787 
785 789 
786 788 
786 790 
791 797 
791 798 
792 799 
792 800 
793 797 
793 800 
794 798 
794 799 
795 797 
795 799 
796 798 
796 800 
801 807 
801 808 
802 809 
802 810 
803 807 
803 810 
804 808 
804 809 
805 807 
805 809 
806 808 
806 810 
811 817 
811 818 
812 819 
812 820 
813 817 
813 820 
814 818 
814 819 
815 817 
815 819 
816 818 
816 820 
821 827 
821 828 
822 829 
822 830 
823 827 
823 830 
824 828 
824 829 
825 827 
825 829 
826 828 
826 830 
831 837 
831 838 
832 839 
832 840 
833 837 
833 840 
834 838 
834 839 
835 837 
835 839 
836 838 
836 840 
841 847 
841 848 
842 849 
842 850 
843 847 
843 850 
844 848 
844 849 
845 847 
845 849 
846 848 
846 850 
851 857 
851 858 
852 859 
852 860 
853 857 
853 860 
854 858 
854 859 
855 857 
855 859 
856 858 
856 860 
861 867 
861 868 
862 869 
862 870 
863 867 
863 870 
864 868 
864 869 
865 867 
865 869 
866 868 
866 870 
871 877 
871 878 
872 879 
872 880 
873 877 
873 880 
874 878 
874 879 
875 877 
875 879 
876 878 
876 880 
881 887 
881 888 
882 889 
882 890 
883 887 
883 890 
883 1015 
884 888 
884 889 
884 1016 
885 887 
885 889 
885 1065 
886 888 
886 890 
886 1066 
891 897 
891 898 
892 899 
892 900 
893 897 
893 900 
894 898 
894 899 
895 897 
895 899 
895 1073 
896 898 
896 900 
896 1074 
901 907 
901 908 
902 909 
902 910 
903 907 
903 910 
904 908 
904 909 
905 907 
905 909 
906 908 
906 910 
911 917 
911 918 
912 919 
912 920 
913 917 
913 920 
914 918 
914 919 
915 917 
915 919 
915 1075 
916 918 
916 920 
916 1076 
921 927 
921 928 
922 929 
922 930 
923 927 
923 930 
924 928 
924 929 
925 927 
925 929 
926 928 
926 930 
931 937 
931 938 
932 939 
932 940 
933 937 
933 940 
933 955 
934 938 
934 939 
934 956 
935 937 
935 939 
935 993 
936 938 
936 940 
936 994 
941 947 
941 948 
942 949 
942 950 
943 947 
943 950 
944 948 
944 949 
945 947 
945 949 
946 948 
946 950 
951 957 
951 958 
952 959 
952 960 
953 957 
953 960 
954 958 
954 959 
955 957 
955 959 
956 958 
956 960 
961 967 
961 968 
962 969 
962 970 
963 967 
963 970 
964 968 
964 969 
965 967 
965 969 
966 968 
966 970 
971 977 
971 978 
972 979 
972 980 
973 977 
973 980 
974 978 
974 979 
975 977 
975 979 
976 978 
976 980 
981 987 
981 988 
982 989 
982 990 
983 987 
983 990 
984 988 
984 989 
985 987 
985 989 
986 988 
986 990 
991 997 
991 998 
992 999 
992 1000 
993 997 
993 1000 
994 998 
994 999 
995 997 
995 999 
995 1045 
996 998 
996 1000 
996 1046 
1001 1007 
1001 1008 
1002 1009 
1002 1010 
1003 1007 
1003 1010 
1004 1008 
1004 1009 
1005 1007 
1005 1009 
1005 1055 
1006 1008 
1006 1010 
1006 1056 
1011 1017 
1011 1018 
1012 1019 
1012 1020 
1013 1017 
1013 1020 
1014 1018 
1014 1019 
1015 1017 
1015 1019 
1016 1018 
1016 1020 
1021 1027 
1021 1028 
1022 1029 
1022 1030 
1023 1027 
1023 1030 
1024 1028 
1024 1029 
1025 1027 
1025 1029 
1026 1028 
1026 1030 
1031 1037 
1031 1038 
1032 1039 
1032 1040 
1033 1037 
1033 1040 
1034 1038 
1034 1039 
1035 1037 
1035 1039 
1036 1038 
1036 1040 
1041 1047 
1041 1048 
1042 1049 
1042 1050 
1043 1047 
1043 1050 
1044 1048 
1044 1049 
1045 1047 
1045 1049 
1046 1048 
1046 1050 
1051 1057 
1051 1058 
1052 1059 
1052 1060 
1053 1057 
1053 1060 
1054 1058 
1054 1059 
1055 1057 
1055 1059 
1056 1058 
1056 1060 
1061 1067 
1061 1068 
1062 1069 
1062 1070 
1063 1067 
1063 1070 
1064 1068 
1064 1069 
1065 1067 
1065 1069 
1066 1068 
1066 1070 
1071 1077 
1071 1078 
1072 1079 
1072 1080 
1073 1077 
1073 1080 
1074 1078 
1074 1079 
1075 1077 
1075 1079 
1076 1078 
1076 1080 
1081 1087 
1081 1088 
1082 1089 
1082 1090 
1083 1087 
1083 1090 
1084 1088 
1084 1089 
1085 1087 
1085 1089 
1086 1088 
1086 1090 
1091 1097 
1091 1098 
1092 1099 
1092 1100 
1093 1097 
1093 1100 
1094 1098 
1094 1099 
1095 1097 
1095 1099 
1096 1098 
1096 1100 
